num_features = 71;
num_usage_limits = 4;
num_plans = 5;
num_addons = 4;

features = ["multiLanguageSupport","wrikeForWindowsAndMac","wrikeIOSAndAndroidApps","brandedWorkspace","storageSpace","taskManagement","subtaskManagement","folderHierachy","accountWideWorkSchedules","personal&AccountWideWorkSchedules","customFieldsWorkflows&Statuses","projectPortfolioManagement","emailIntegration&Notifications","customWorkViews","calendars","dynamicGanttChart","preBuiltDashboards&Widgets","realTimeReports","tableauIntegration","businessIntelligenceAPI","advancedAnalytics&DataVisualizations","aiRecommendedTasks","aiSubtaskCreation","smartSearch","voiceAssistantInteraction","smartRepliesAndQuickReactions","ocrDocumentProcessing","aiProjectRiskPrediction","useCaseProjectTemplates","customTemplatesAndBlueprints","dynamicRequestForms","customItemTypes","advancedWorkflowAutomation","taskAndProjectApproval","customApprovalFlows","automationEngine","resourcesView","workloadCharts","effortAllocation","resourceAssigment","timeTracking","timeSheets","jobRoles","budgeting","resourceBookings","teamUtilizationAndPerformanceDashboard","collaborators","guestApprovals","fileProofingAndApproval","advancedProfingInHTML5AndSharepoint","extensionForAdobeCreativeCloud","digitalAssetManagementIntegration","cloudContentConnector","openRESTfulAPI","cloudStoragePlatforms","productivityAppsAndTools","salesForceIntegration","netSuiteAndQuickBookIntegrations","adobeCreativeCloudExtension","powerBIIntegration","enterpriseGradeSecurity","folderAndProjectPermissions","userAuditReports","singleSignOn","twoFactorVerification","controlledAdminPermission","networkAccess","passwordPolicySettings","advancedUserAccessControls","customizableUserTypes","lockedSpaces"];
usage_limits = ["minNumberOfUsers","maxNumberOfUsers","useStorage","useAutomations"];
plans = ["FREE","PROFESSIONAL","BUSINESS","ENTERPRISE","PINNACLE"];
addons = ["wrikeMarketingInsights","wrikeIntegrate","wrikeTwoWaySync","wrikeLock"];

plans_prices = [0,9.8,24.8,248,2480];
addons_prices = [100,100,100,100];

linked_features = array2d(USAGE_LIMITS, FEATURES, [
    % minNumberOfUsers
    0,0,0,0,0,0,0,0,0,0,0,0,0,0,0,0,0,0,0,0,0,0,0,0,0,0,0,0,0,0,0,0,0,0,0,0,0,0,0,0,0,0,0,0,0,0,0,0,0,0,0,0,0,0,0,0,0,0,0,0,0,0,0,0,0,0,0,0,0,0,0,
    % maxNumberOfUsers
    0,0,0,0,0,0,0,0,0,0,0,0,0,0,0,0,0,0,0,0,0,0,0,0,0,0,0,0,0,0,0,0,0,0,0,0,0,0,0,0,0,0,0,0,0,0,0,0,0,0,0,0,0,0,0,0,0,0,0,0,0,0,0,0,0,0,0,0,0,0,0,
    % useStorage
    0,0,0,0,1,0,0,0,0,0,0,0,0,0,0,0,0,0,0,0,0,0,0,0,0,0,0,0,0,0,0,0,0,0,0,0,0,0,0,0,0,0,0,0,0,0,0,0,0,0,0,0,0,0,0,0,0,0,0,0,0,0,0,0,0,0,0,0,0,0,0,
    % useAutomations
    0,0,0,0,0,0,0,0,0,0,0,0,0,0,0,0,0,0,0,0,0,0,0,0,0,0,0,0,0,0,0,0,0,0,0,1,0,0,0,0,0,0,0,0,0,0,0,0,0,0,0,0,0,0,0,0,0,0,0,0,0,0,0,0,0,0,0,0,0,0,0
]);

plans_features = array2d(PLANS, FEATURES, [
    % FREE
    1,1,1,0,0,1,1,1,1,0,0,0,1,1,0,0,0,0,0,0,0,1,1,1,1,1,1,0,1,0,0,0,0,0,0,0,0,0,0,0,0,0,0,0,0,0,0,0,0,0,0,0,0,1,1,0,0,0,0,0,1,0,0,0,0,0,0,0,0,0,0,
    % PROFESSIONAL
    1,1,1,0,1,1,1,1,1,0,0,0,1,1,0,1,1,0,0,0,0,1,1,1,1,1,1,0,1,0,0,0,0,0,0,0,0,0,0,0,0,0,0,0,0,0,1,0,0,0,0,0,0,1,1,1,0,0,0,0,1,0,0,0,0,0,0,0,0,0,0,
    % BUSINESS
    1,1,1,1,1,1,1,1,1,1,1,1,1,1,1,1,1,1,0,0,0,1,1,1,1,1,1,1,1,1,1,1,1,1,1,1,1,1,1,1,1,1,0,0,0,0,1,1,1,0,1,0,0,1,1,1,0,1,1,0,1,1,0,0,0,0,0,0,0,0,0,
    % ENTERPRISE
    1,1,1,1,1,1,1,1,1,1,1,1,1,1,1,1,1,1,1,1,0,1,1,1,1,1,1,1,1,1,1,1,1,1,1,1,1,1,1,1,1,1,0,0,0,0,1,1,1,0,1,0,0,1,1,1,0,1,1,0,1,1,1,1,1,1,1,1,1,1,0,
    % PINNACLE
    1,1,1,1,1,1,1,1,1,1,1,1,1,1,1,1,1,1,1,1,1,1,1,1,1,1,1,1,1,1,1,1,1,1,1,1,1,1,1,1,1,1,1,1,1,1,1,1,1,1,1,1,0,1,1,1,0,1,1,0,1,1,1,1,1,1,1,1,1,1,1
]);
plans_usage_limits = array2d(PLANS, USAGE_LIMITS, [
    % FREE
    1,100000000,2,200,
    % PROFESSIONAL
    5,200,2,200,
    % BUSINESS
    5,200,5,200,
    % ENTERPRISE
    5,100000000,10,1000,
    % PINNACLE
    5,100000000,15,1500
]);

addons_features = array2d(ADDONS, FEATURES, [
    % wrikeMarketingInsights
    0,0,0,0,0,0,0,0,0,0,0,0,0,0,0,0,0,0,0,0,0,0,0,0,0,0,0,0,0,0,0,0,0,0,0,0,0,0,0,0,0,0,0,0,0,0,0,0,0,0,0,0,0,0,0,0,0,0,0,0,0,0,0,0,0,0,0,0,0,0,0,
    % wrikeIntegrate
    0,0,0,0,0,0,0,0,0,0,0,0,0,0,0,0,0,0,0,0,0,0,0,0,0,0,0,0,0,0,0,0,0,0,0,0,0,0,0,0,0,0,0,0,0,0,0,0,0,0,0,0,0,0,0,0,0,0,0,0,0,0,0,0,0,0,0,0,0,0,0,
    % wrikeTwoWaySync
    0,0,0,0,0,0,0,0,0,0,0,0,0,0,0,0,0,0,0,0,0,0,0,0,0,0,0,0,0,0,0,0,0,0,0,0,0,0,0,0,0,0,0,0,0,0,0,0,0,0,0,0,0,0,0,0,0,0,0,0,0,0,0,0,0,0,0,0,0,0,0,
    % wrikeLock
    0,0,0,0,0,0,0,0,0,0,0,0,0,0,0,0,0,0,0,0,0,0,0,0,0,0,0,0,0,0,0,0,0,0,0,0,0,0,0,0,0,0,0,0,0,0,0,0,0,0,0,0,0,0,0,0,0,0,0,0,0,0,0,0,0,0,0,0,0,0,0
]);
addons_usage_limits = array2d(ADDONS, USAGE_LIMITS, [
    % wrikeMarketingInsights
    0,0,0,0,
    % wrikeIntegrate
    0,0,0,0,
    % wrikeTwoWaySync
    0,0,0,0,
    % wrikeLock
    0,0,0,0
]);
addons_usage_limits_extensions = array2d(ADDONS, USAGE_LIMITS, [
    % wrikeMarketingInsights
    0,0,0,0,
    % wrikeIntegrate
    0,0,0,0,
    % wrikeTwoWaySync
    0,0,0,0,
    % wrikeLock
    0,0,0,0
]);
addons_available_for = array2d(ADDONS, PLANS, [
    % wrikeMarketingInsights
    0,0,1,1,1,
    % wrikeIntegrate
    0,0,1,1,1,
    % wrikeTwoWaySync
    0,0,1,1,1,
    % wrikeLock
    0,0,0,1,1
]);
addons_depends_on = array2d(ADDONS, ADDONS, [
    % wrikeMarketingInsights
    0,0,0,0,
    % wrikeIntegrate
    0,0,0,0,
    % wrikeTwoWaySync
    0,0,0,0,
    % wrikeLock
    0,0,0,0
]);
